\* Problem: Unknown *\

Maximize
 obj: + xp_0_0 + xp_0_1 + xp_0_2 + xp_0_3 + xp_0_4 + xp_0_5 + xp_0_6
 + xp_0_7 + xp_1_0 + xp_1_1 + xp_1_2 + xp_2_0 + xp_2_1 + xp_2_2 + xp_2_3
 + xp_2_4 + xp_3_0 + xp_3_1 + xp_3_2 + xp_4_0 + xp_4_1 + xp_5_0 + xp_5_1
 + xp_5_2 + xp_6_0 + xp_6_1 + xp_6_2 + xp_7_0 + xp_7_1 + xp_8_0 + xp_8_1
 + xp_9_0 + xp_10_0 + xp_11_0 + xp_11_1 + xp_11_2 + xp_11_3 + xp_11_4
 + xp_12_0 + xp_13_0 + xp_13_1 + xp_14_0 + xp_14_1 + xp_15_0 + xp_16_0
 + xp_17_0 + xp_17_1 + xp_17_2 + xp_17_3 + xp_17_4 + xp_17_5 + xp_18_0
 + xp_18_1 + xp_18_2 + xp_18_3 + xp_18_4 + xp_19_0 + xp_19_1 + xp_19_2
 + xp_19_3 + xp_19_4 + xp_19_5 + xp_20_0 + xp_20_1 + xp_20_2 + xp_20_3
 + xp_20_4 + xp_21_0 + xp_21_1 + xp_21_2 + xp_21_3 + xp_22_0 + xp_22_1
 + xp_22_2 + xp_22_3 + xp_22_4 + xp_22_5 + xp_23_0 + xp_23_1 + xp_23_2
 + xp_23_3 + xp_23_4

Subject To
 r_1: 0 xp_0_0 <= 25.8070099524016
 r_2: + xp_22_4 + xp_18_1 + xp_17_3 + xp_5_1 + xp_2_2
 <= 25.5951933909125
 r_3: + xp_21_1 + xp_18_4 + xp_6_2 <= 26.7924528301887
 r_4: + xp_18_2 + xp_17_5 + xp_15_0 <= 26.6425279789335
 r_5: + xp_18_0 <= 25.3980019336126
 r_6: + xp_19_5 + xp_18_3 <= 26.0949464012251
 r_7: + xp_20_4 + xp_20_3 <= 25.8070099524016
 r_8: + xp_23_2 + xp_22_2 + xp_11_4 + xp_11_3 + xp_5_2 + xp_3_2 + xp_2_1
 <= 25.5951933909125
 r_9: + xp_11_1 + xp_6_1 + xp_3_1 <= 26.7924528301887
 r_10: + xp_3_0 <= 26.6425279789335
 r_11: + xp_18_3 + xp_11_2 + xp_0_7 <= 25.3980019336126
 r_12: + xp_11_0 <= 26.0949464012251
 r_13: 0 xp_0_0 <= 27.3778920308483
 r_14: + xp_21_2 + xp_19_1 + xp_14_0 + xp_0_3 + xp_0_1
 <= 25.5951933909125
 r_15: + xp_21_0 <= 26.7924528301887
 r_16: + xp_22_1 + xp_21_3 + xp_19_4 + xp_0_6 + xp_0_4 + xp_0_2
 <= 26.5090230242688
 r_17: + xp_0_0 <= 25.3980019336126
 r_18: + xp_21_1 + xp_19_5 + xp_4_0 <= 25.8070099524016
 r_19: + xp_19_0 <= 25.8070099524016
 r_20: + xp_19_3 + xp_19_2 + xp_14_1 + xp_4_1 + xp_0_7 + xp_0_5
 <= 27.3778920308483
 r_21: + xp_20_1 <= 25.5951933909125
 r_22: + xp_21_2 + xp_7_1 <= 26.7924528301887
 r_23: + xp_23_4 + xp_22_4 + xp_22_3 + xp_22_2 + xp_17_3 + xp_11_4
 <= 26.5090230242688
 r_24: + xp_23_3 + xp_23_2 + xp_3_2 + xp_0_5 + xp_0_3
 <= 26.2815479528884
 r_25: 0 xp_0_0 <= 27.3778920308483
 r_26: + xp_18_1 + xp_0_1 <= 25.3980019336126
 r_27: + xp_11_3 + xp_4_1 <= 25.5951933909125
 r_28: + xp_20_4 + xp_19_1 <= 25.5951933909125
 r_29: + xp_20_2 <= 26.7924528301887
 r_30: + xp_2_0 <= 26.7924528301887
 r_31: + xp_18_4 + xp_6_2 + xp_6_1 + xp_3_1 + xp_2_4 <= 26.2815479528884
 r_32: + xp_2_3 <= 27.3778920308483
 r_33: + xp_11_1 + xp_2_2 <= 26.7924528301887
 r_34: + xp_19_3 + xp_2_1 <= 26.7924528301887
 r_35: 0 xp_0_0 <= 26.5090230242688
 r_36: + xp_9_0 <= 26.5090230242688
 r_37: + xp_21_3 + xp_13_1 + xp_8_1 + xp_0_4 <= 26.2815479528884
 r_38: + xp_23_4 + xp_1_1 <= 28.3056478405316
 r_39: + xp_19_4 + xp_17_3 + xp_17_1 + xp_11_4 + xp_0_6
 <= 26.6425279789335
 r_40: + xp_0_2 <= 25.3980019336126
 r_41: + xp_12_0 + xp_2_4 <= 26.2815479528884
 r_42: + xp_21_3 <= 26.2815479528884
 r_43: + xp_16_0 <= 26.2815479528884
 r_44: + xp_23_3 + xp_23_2 + xp_23_1 + xp_1_2 <= 28.3056478405316
 r_45: + xp_17_4 + xp_3_2 + xp_3_1 <= 26.6425279789335
 r_46: + xp_18_4 + xp_0_5 + xp_0_4 + xp_0_3 <= 25.3980019336126
 r_47: + xp_22_5 + xp_13_1 <= 28.3056478405316
 r_48: + xp_13_0 <= 28.3056478405316
 r_49: + xp_17_2 <= 26.6425279789335
 r_50: 0 xp_0_0 <= 25.3980019336126
 r_51: + xp_8_1 + xp_1_1 <= 26.6425279789335
 r_52: + xp_8_0 + xp_1_2 <= 26.6425279789335
 r_53: + xp_1_0 <= 26.6425279789335
 r_54: + xp_18_2 + xp_0_6 <= 25.3980019336126
 r_55: + xp_11_4 <= 26.6425279789335
 r_56: + xp_19_4 <= 26.6425279789335
 r_57: + xp_22_1 <= 25.3980019336126
 r_58: + xp_23_4 + xp_23_3 + xp_22_3 + xp_5_0 <= 25.3980019336126
 r_59: + xp_22_0 + xp_17_1 <= 25.3980019336126
 r_60: + xp_23_1 + xp_17_4 + xp_6_0 <= 25.3980019336126
 r_61: + xp_23_0 + xp_22_5 + xp_17_2 <= 25.3980019336126
 r_62: + xp_17_0 <= 25.3980019336126
 r_63: + xp_22_4 + xp_17_5 + xp_17_3 + xp_11_2 + xp_6_2 + xp_5_1
 <= 25.3980019336126
 r_64: + xp_23_2 + xp_22_2 + xp_6_1 + xp_5_2 <= 25.3980019336126
 r_65: + xp_20_4 + xp_20_1 + xp_14_1 + xp_7_1 + xp_4_1 + xp_2_3 + xp_0_5
 <= 27.3778920308483
 r_66: + xp_20_2 + xp_19_3 + xp_7_0 <= 27.3778920308483
 r_67: + xp_20_3 + xp_19_2 + xp_10_0 + xp_0_7 <= 27.3778920308483
 r_68: + xp_20_0 <= 27.3778920308483

Bounds
 0 <= xp_0_0 <= 28.0114506282956
 0 <= xp_0_1 <= 8.7857606388465
 0 <= xp_0_2 <= 15.9716760289292
 0 <= xp_0_3 <= 0.921957779721087
 0 <= xp_0_4 <= 3.00994364984162
 0 <= xp_0_5 <= 3.9319014295627
 0 <= xp_0_6 <= 0.921957779721087
 0 <= xp_0_7 <= 0.921957779721087
 0 <= xp_1_0 <= 21.5667278420992
 0 <= xp_1_1 <= 12.5368968925743
 0 <= xp_1_2 <= 0.876766485762365
 0 <= xp_2_0 <= 22.7146721910504
 0 <= xp_2_1 <= 4.65501029200065
 0 <= xp_2_2 <= 5.47754361308017
 0 <= xp_2_3 <= 0.822533321079518
 0 <= xp_2_4 <= 0.822533321079518
 0 <= xp_3_0 <= 25.7336516917288
 0 <= xp_3_1 <= 4.66404614283748
 0 <= xp_3_2 <= 1.65410249299586
 0 <= xp_4_0 <= 23.1394835980144
 0 <= xp_4_1 <= 2.8924354497518
 0 <= xp_5_0 <= 17.3546126985108
 0 <= xp_5_1 <= 5.7848708995036
 0 <= xp_5_2 <= 2.8924354497518
 0 <= xp_6_0 <= 10.4127676191065
 0 <= xp_6_1 <= 7.80957571432986
 0 <= xp_6_2 <= 5.20638380955324
 0 <= xp_7_0 <= 19.9578046032874
 0 <= xp_7_1 <= 2.49472557541093
 0 <= xp_8_0 <= 17.9330997884612
 0 <= xp_8_1 <= 2.24163747355765
 0 <= xp_9_0 <= 18.710441815582
 0 <= xp_10_0 <= 18.710441815582
 0 <= xp_11_0 <= 27.0894928485746
 0 <= xp_11_1 <= 11.8318476920354
 0 <= xp_11_2 <= 6.58029064818535
 0 <= xp_11_3 <= 10.7110409950312
 0 <= xp_11_4 <= 3.00994364984162
 0 <= xp_12_0 <= 17.5715453572422
 0 <= xp_13_0 <= 13.2871253472973
 0 <= xp_13_1 <= 3.79632152779924
 0 <= xp_14_0 <= 9.03886078047438
 0 <= xp_14_1 <= 7.2310886243795
 0 <= xp_15_0 <= 16.1072499108053
 0 <= xp_16_0 <= 15.4564519346112
 0 <= xp_17_0 <= 27.1165943811977
 0 <= xp_17_1 <= 2.01566294410214
 0 <= xp_17_2 <= 4.03132588820427
 0 <= xp_17_3 <= 2.01566294410214
 0 <= xp_17_4 <= 7.04126953804589
 0 <= xp_17_5 <= 3.00994364984162
 0 <= xp_18_0 <= 22.2446393906911
 0 <= xp_18_1 <= 4.80867393521237
 0 <= xp_18_2 <= 3.00994364984162
 0 <= xp_18_3 <= 11.4160781557955
 0 <= xp_18_4 <= 1.79873028537075
 0 <= xp_19_0 <= 28.8339899692625
 0 <= xp_19_1 <= 3.48899424137581
 0 <= xp_19_2 <= 3.48899424137581
 0 <= xp_19_3 <= 1.7444971206879
 0 <= xp_19_4 <= 3.48899424137581
 0 <= xp_19_5 <= 1.7444971206879
 0 <= xp_20_0 <= 27.3877662244993
 0 <= xp_20_1 <= 6.31816067560794
 0 <= xp_20_2 <= 4.96232553864948
 0 <= xp_20_3 <= 1.65410851288316
 0 <= xp_20_4 <= 1.65410851288316
 0 <= xp_21_0 <= 30
 0 <= xp_21_1 <= 4.36576072713817
 0 <= xp_21_2 <= 4.36576072713817
 0 <= xp_21_3 <= 1.45525357571272
 0 <= xp_22_0 <= 26.6285019189394
 0 <= xp_22_1 <= 3.00994364984162
 0 <= xp_22_2 <= 1.27447636010324
 0 <= xp_22_3 <= 2.54895272020647
 0 <= xp_22_4 <= 1.27447636010324
 0 <= xp_22_5 <= 3.82342908030971
 0 <= xp_23_0 <= 19.6866327599859
 0 <= xp_23_1 <= 8.56884001988971
 0 <= xp_23_2 <= 1.27447636010324
 0 <= xp_23_3 <= 6.01988729968323
 0 <= xp_23_4 <= 3.00994364984162

End
